clingo version 5.4.0
Reading from graph-transition.lp ...
Solving...
Answer: 1
t(0) t(1) t(2) t(3) init_Forest(1,2) init_Forest(1,4) init_Forest(3,6) init_Forest(5,6) goal_Forest(2,3) goal_Forest(2,5) goal_Forest(4,5) goal_Forest(5,6) edge(1,2) edge(1,4) edge(2,3) edge(2,5) edge(3,6) edge(4,5) edge(5,6) root(1) root(3) reached(1,1,0) reached(1,1,1) reached(1,1,2) reached(1,1,3) reached(3,3,0) reached(3,3,1) reached(3,3,2) reached(3,3,3) node(1) node(2) node(3) node(4) node(5) node(6) reached(2,3,3) reached(6,3,3) reached(6,3,0) reached(2,1,0) reached(4,1,0) reached(5,3,0) reached(5,3,3) reached(4,3,3) inForest(1,2,0) inForest(1,4,0) inForest(1,4,1) inForest(2,3,1) inForest(2,3,2) inForest(2,3,3) inForest(2,5,3) inForest(3,6,0) inForest(3,6,1) inForest(3,6,2) inForest(4,5,2) inForest(4,5,3) inForest(5,6,0) inForest(5,6,1) inForest(5,6,2) inForest(5,6,3) dist(1,2,1) dist(2,3,1) dist(1,4,2) dist(4,5,2) dist(2,5,3) dist(3,6,3) reached(2,3,2) reached(2,3,1) reached(6,3,2) reached(6,3,1) reached(4,1,1) reached(5,3,1) reached(5,3,2) reached(4,3,2)
SATISFIABLE

Models       : 1+
Calls        : 1
Time         : 0.010s (Solving: 0.00s 1st Model: 0.00s Unsat: 0.00s)
CPU Time     : 0.016s
